O  Ce
 1.0000000000000000
    11.5739237944614111    0.0000000000000000    0.0000000000000000
    -5.7869618972307055   10.0233120274687657    0.0000000000000000
     0.0000000000000000    0.0000000000000000   24.0000000000000000
 O   Ce
  18   9
Selective dynamics
Direct
  0.0000000000000000  0.0000000000000000  0.4671872597010562   F   F   F
  0.0000000000000000  0.3333333333333333  0.4671872597010562   F   F   F
  0.0000000000000000  0.6666666666666666  0.4671872597010562   F   F   F
  0.3333333333333333  0.0000000000000000  0.4671872597010562   F   F   F
  0.3333333333333333  0.3333333333333333  0.4671872597010562   F   F   F
  0.3333333333333333  0.6666666666666666  0.4671872597010562   F   F   F
  0.6666666666666666  0.0000000000000000  0.4671872597010562   F   F   F
  0.6666666666666666  0.3333333333333333  0.4671872597010562   F   F   F
  0.6666666666666666  0.6666666666666666  0.4671872597010562   F   F   F
  0.2222222222222222  0.1111111111111111  0.5328127402989438   T   T   T
  0.2222222222222222  0.4444444444444445  0.5328127402989438   T   T   T
  0.2222222222222222  0.7777777777777778  0.5328127402989438   T   T   T
  0.5555555555555555  0.1111111111111111  0.5328127402989438   T   T   T
  0.5555555555555555  0.4444444444444445  0.5328127402989438   T   T   T
  0.5555555555555555  0.7777777777777778  0.5328127402989438   T   T   T
  0.8888888888888891  0.1111111111111111  0.5328127402989438   T   T   T
  0.8888888888888888  0.4444444444444445  0.5328127402989438   T   T   T
  0.8888888888888888  0.7777777777777778  0.5328127402989438   T   T   T
  0.1111111111111111  0.2222222222222222  0.5000000000000000   F   F   F
  0.1111111111111111  0.5555555555555555  0.5000000000000000   F   F   F
  0.1111111111111110  0.8888888888888887  0.5000000000000000   F   F   F
  0.4444444444444445  0.2222222222222222  0.5000000000000000   F   F   F
  0.4444444444444445  0.5555555555555555  0.5000000000000000   F   F   F
  0.4444444444444444  0.8888888888888887  0.5000000000000000   F   F   F
  0.7777777777777778  0.2222222222222222  0.5000000000000000   F   F   F
  0.7777777777777778  0.5555555555555555  0.5000000000000000   F   F   F
  0.7777777777777778  0.8888888888888887  0.5000000000000000   F   F   F
